# Solution for model FSG
# Objective value = 1.1852165214243823e+03
x_0_1 1
x_0_2 1
x_0_3 0
x_0_4 0
x_0_5 0
x_0_6 0
x_0_7 0
x_1_2 0
x_1_3 0
x_1_4 0
x_1_5 1
x_1_6 0
x_1_7 0
x_2_1 0
x_2_3 0
x_2_4 1
x_2_5 0
x_2_6 0
x_2_7 0
x_3_1 0
x_3_2 0
x_3_4 0
x_3_5 0
x_3_6 1
x_3_7 0
x_4_1 0
x_4_2 0
x_4_3 1
x_4_5 0
x_4_6 0
x_4_7 0
x_5_1 0
x_5_2 0
x_5_3 0
x_5_4 0
x_5_6 0
x_5_7 1
U_1_1 0
U_1_2 0
U_1_3 1
U_2_1 1
U_2_2 0
U_2_3 0
U_3_1 1
U_3_2 0
U_3_3 0
U_4_1 1
U_4_2 0
U_4_3 0
U_5_1 0
U_5_2 0
U_5_3 1
U_6_1 0
U_6_2 1
U_6_3 0
U_7_1 0
U_7_2 0
U_7_3 1
TBar_0 0
TBar_1 30
TBar_2 5.4415530871250368e+00
TBar_3 15
TBar_4 8.7642963508518150e+00
TBar_5 3.4228096498425742e+01
TBar_6 30
TBar_7 4.0911149692887086e+01
y_0_1_1 0
y_0_1_2 0
y_0_1_3 0
y_0_1_4 0
y_0_1_5 0
y_0_2_1 0
y_0_2_2 0
y_0_2_3 0
y_0_2_4 0
y_0_2_5 0
y_0_3_1 0
y_0_3_2 0
y_0_3_3 0
y_0_3_4 0
y_0_3_5 0
y_0_4_1 0
y_0_4_2 0
y_0_4_3 0
y_0_4_4 0
y_0_4_5 0
y_0_5_1 0
y_0_5_2 0
y_0_5_3 0
y_0_5_4 0
y_0_5_5 0
y_0_6_1 0
y_0_6_2 0
y_0_6_3 0
y_0_6_4 0
y_0_6_5 0
y_0_7_1 0
y_0_7_2 0
y_0_7_3 0
y_0_7_4 0
y_0_7_5 0
y_1_2_1 0
y_1_2_2 0
y_1_2_3 0
y_1_2_4 0
y_1_2_5 0
y_1_3_1 0
y_1_3_2 0
y_1_3_3 0
y_1_3_4 0
y_1_3_5 0
y_1_4_1 0
y_1_4_2 0
y_1_4_3 0
y_1_4_4 0
y_1_4_5 0
y_1_5_1 0
y_1_5_2 0
y_1_5_3 0
y_1_5_4 0
y_1_5_5 0
y_1_6_1 0
y_1_6_2 0
y_1_6_3 0
y_1_6_4 0
y_1_6_5 0
y_1_7_1 0
y_1_7_2 0
y_1_7_3 0
y_1_7_4 0
y_1_7_5 0
y_2_1_1 0
y_2_1_2 0
y_2_1_3 0
y_2_1_4 0
y_2_1_5 0
y_2_3_1 0
y_2_3_2 0
y_2_3_3 0
y_2_3_4 0
y_2_3_5 0
y_2_4_1 0
y_2_4_2 0
y_2_4_3 0
y_2_4_4 0
y_2_4_5 0
y_2_5_1 0
y_2_5_2 0
y_2_5_3 0
y_2_5_4 0
y_2_5_5 0
y_2_6_1 0
y_2_6_2 0
y_2_6_3 0
y_2_6_4 0
y_2_6_5 0
y_2_7_1 0
y_2_7_2 0
y_2_7_3 0
y_2_7_4 0
y_2_7_5 0
y_3_1_1 0
y_3_1_2 0
y_3_1_3 0
y_3_1_4 0
y_3_1_5 0
y_3_2_1 0
y_3_2_2 0
y_3_2_3 0
y_3_2_4 0
y_3_2_5 0
y_3_4_1 0
y_3_4_2 0
y_3_4_3 0
y_3_4_4 0
y_3_4_5 0
y_3_5_1 0
y_3_5_2 0
y_3_5_3 0
y_3_5_4 0
y_3_5_5 0
y_3_6_1 1
y_3_6_2 1
y_3_6_3 1
y_3_6_4 1
y_3_6_5 1
y_3_7_1 0
y_3_7_2 0
y_3_7_3 0
y_3_7_4 0
y_3_7_5 0
y_4_1_1 0
y_4_1_2 0
y_4_1_3 0
y_4_1_4 0
y_4_1_5 0
y_4_2_1 0
y_4_2_2 0
y_4_2_3 0
y_4_2_4 0
y_4_2_5 0
y_4_3_1 1
y_4_3_2 1
y_4_3_3 1
y_4_3_4 1
y_4_3_5 1
y_4_5_1 0
y_4_5_2 0
y_4_5_3 0
y_4_5_4 0
y_4_5_5 0
y_4_6_1 0
y_4_6_2 0
y_4_6_3 0
y_4_6_4 0
y_4_6_5 0
y_4_7_1 0
y_4_7_2 0
y_4_7_3 0
y_4_7_4 0
y_4_7_5 0
y_5_1_1 0
y_5_1_2 0
y_5_1_3 0
y_5_1_4 0
y_5_1_5 0
y_5_2_1 0
y_5_2_2 0
y_5_2_3 0
y_5_2_4 0
y_5_2_5 0
y_5_3_1 0
y_5_3_2 0
y_5_3_3 0
y_5_3_4 0
y_5_3_5 0
y_5_4_1 0
y_5_4_2 0
y_5_4_3 0
y_5_4_4 0
y_5_4_5 0
y_5_6_1 0
y_5_6_2 0
y_5_6_3 0
y_5_6_4 0
y_5_6_5 0
y_5_7_1 0
y_5_7_2 0
y_5_7_3 0
y_5_7_4 0
y_5_7_5 0
Q_0_1 0
Q_0_2 0
Q_0_3 0
Q_0_4 0
Q_0_5 0
Q_1_1 6.5719999999999644e+01
Q_1_2 5.9439999999999635e+01
Q_1_3 6.9374999999999631e+01
Q_1_4 6.4179999999999637e+01
Q_1_5 6.3184999999999633e+01
Q_2_1 60.3
Q_2_2 68.65
Q_2_3 6.4719999999999786e+01
Q_2_4 6.7179999999999779e+01
Q_2_5 6.8779999999999774e+01
Q_3_1 1.5117999999999992e+02
Q_3_2 1.5508499999999992e+02
Q_3_3 1.5453999999999994e+02
Q_3_4 1.5180999999999995e+02
Q_3_5 1.5481999999999991e+02
Q_4_1 1.1592000000000007e+02
Q_4_2 1.2776000000000008e+02
Q_4_3 124.35
Q_4_4 1.2651000000000008e+02
Q_4_5 1.2643000000000006e+02
Q_5_1 1.1169500000000001e+02
Q_5_2 104.885
Q_5_3 111.735
Q_5_4 119.5
Q_5_5 114.685
Q_6_1 1.5117999999999992e+02
Q_6_2 1.5508499999999992e+02
Q_6_3 1.5453999999999994e+02
Q_6_4 1.5180999999999995e+02
Q_6_5 1.5481999999999991e+02
Q_7_1 1.1169500000000001e+02
Q_7_2 104.885
Q_7_3 111.735
Q_7_4 119.5
Q_7_5 114.685
R_6_1 5.1179999999999922e+01
R_6_2 5.5084999999999923e+01
R_6_3 5.4539999999999935e+01
R_6_4 5.1809999999999945e+01
R_6_5 5.4819999999999908e+01
R_7_1 11.695
R_7_2 4.885
R_7_3 11.735
R_7_4 19.5
R_7_5 14.685
L_1_1 0
L_1_2 0
L_1_3 0
L_1_4 0
L_1_5 0
L_2_1 25.39
L_2_2 28.21
L_2_3 16.41
L_2_4 22.695
L_2_5 17.76
L_3_1 10.34
L_3_2 1.1399999999999999e+01
L_3_3 12.205
L_3_4 12.875
L_3_5 12.875
L_4_1 11.7
L_4_2 17.095
L_4_3 2.1560000000000002e+01
L_4_4 11.26
L_4_5 16.935
L_5_1 0
L_5_2 0
L_5_3 0
L_5_4 0
L_5_5 0
rho_1_1 0
rho_1_2 0
rho_1_3 0
rho_1_4 0
rho_1_5 0
rho_2_1 0
rho_2_2 0
rho_2_3 0
rho_2_4 0
rho_2_5 0
rho_3_1 1
rho_3_2 1
rho_3_3 1
rho_3_4 1
rho_3_5 1
rho_4_1 1
rho_4_2 1
rho_4_3 1
rho_4_4 1
rho_4_5 1
rho_5_1 1
rho_5_2 1
rho_5_3 1
rho_5_4 1
rho_5_5 1
lambd_1_1 0
lambd_1_2 0
lambd_1_3 0
lambd_1_4 0
lambd_1_5 0
lambd_2_1 0
lambd_2_2 0
lambd_2_3 0
lambd_2_4 0
lambd_2_5 0
lambd_3_1 0
lambd_3_2 0
lambd_3_3 0
lambd_3_4 0
lambd_3_5 0
lambd_4_1 0
lambd_4_2 0
lambd_4_3 0
lambd_4_4 0
lambd_4_5 0
lambd_5_1 0
lambd_5_2 0
lambd_5_3 0
lambd_5_4 0
lambd_5_5 0
alpha_1_1 0
alpha_1_2 0
alpha_1_3 0
alpha_1_4 0
alpha_1_5 0
alpha_2_1 0
alpha_2_2 0
alpha_2_3 0
alpha_2_4 0
alpha_2_5 0
alpha_3_1 0
alpha_3_2 0
alpha_3_3 0
alpha_3_4 0
alpha_3_5 0
alpha_4_1 1
alpha_4_2 1
alpha_4_3 1
alpha_4_4 1
alpha_4_5 1
alpha_5_1 0
alpha_5_2 0
alpha_5_3 0
alpha_5_4 0
alpha_5_5 0
